SECTION Graph
Nodes 363
Edges 750
E 1 9 23
E 1 32 7
E 2 3 14
E 2 10 23
E 3 4 1
E 3 11 23
E 4 12 23
E 5 6 1
E 5 144 14
E 6 7 14
E 6 145 14
E 7 8 1
E 7 147 14
E 8 132 16
E 8 146 8
E 8 148 14
E 9 10 1
E 9 13 23
E 9 36 7
E 10 11 14
E 10 14 23
E 11 12 1
E 11 15 23
E 12 16 23
E 13 14 1
E 13 40 7
E 13 304 12
E 14 15 14
E 14 306 12
E 15 16 1
E 15 322 12
E 16 323 12
E 17 18 1
E 17 267 12
E 17 279 7
E 17 288 2
E 18 19 14
E 18 270 12
E 18 292 2
E 19 20 1
E 19 293 12
E 19 312 2
E 20 296 12
E 20 315 2
E 21 22 1
E 21 48 7
E 21 234 14
E 21 267 9
E 22 23 14
E 22 238 14
E 22 270 9
E 23 24 1
E 23 256 14
E 23 293 9
E 24 259 14
E 24 296 9
E 25 26 1
E 25 52 7
E 25 234 9
E 26 27 14
E 26 238 9
E 27 28 1
E 27 256 9
E 28 259 9
E 29 30 1
E 29 320 21
E 29 325 7
E 30 31 14
E 30 321 21
E 31 32 1
E 31 326 21
E 32 327 21
E 33 34 1
E 33 287 21
E 33 309 7
E 33 320 2
E 34 35 14
E 34 290 21
E 34 321 2
E 35 36 1
E 35 311 21
E 35 326 2
E 36 314 21
E 36 327 2
E 37 38 1
E 37 266 12
E 37 278 7
E 37 287 2
E 38 39 14
E 38 269 12
E 38 290 2
E 39 40 1
E 39 291 12
E 39 311 2
E 40 295 12
E 40 314 2
E 41 42 1
E 41 68 7
E 41 249 2
E 41 266 9
E 42 43 14
E 42 251 2
E 42 269 9
E 43 44 1
E 43 276 2
E 43 291 9
E 44 279 2
E 44 288 7
E 44 295 9
E 45 46 1
E 45 72 7
E 45 205 14
E 45 233 9
E 46 47 14
E 46 208 14
E 46 237 9
E 47 48 1
E 47 221 14
E 47 255 9
E 48 225 14
E 48 258 9
E 49 50 1
E 49 76 7
E 49 205 9
E 50 51 14
E 50 208 9
E 51 52 1
E 51 221 9
E 52 225 9
E 53 54 1
E 53 313 7
E 53 318 2
E 54 55 14
E 54 319 2
E 55 56 1
E 55 324 2
E 56 325 2
E 57 58 1
E 57 281 7
E 57 284 2
E 57 294 2
E 58 59 14
E 58 285 2
E 58 297 2
E 59 60 1
E 59 308 2
E 59 316 2
E 60 309 2
E 60 317 2
E 60 320 7
E 61 62 1
E 61 242 7
E 61 248 2
E 61 272 11
E 62 63 14
E 62 250 2
E 62 273 11
E 63 64 1
E 63 275 2
E 63 298 11
E 64 278 2
E 64 287 7
E 64 299 11
E 65 66 1
E 65 204 14
E 65 213 7
E 65 232 9
E 66 67 14
E 66 207 14
E 66 236 9
E 67 68 1
E 67 220 14
E 67 254 9
E 68 224 14
E 68 257 9
E 69 70 1
E 69 183 14
E 69 189 7
E 69 204 9
E 70 71 14
E 70 186 14
E 70 207 9
E 71 72 1
E 71 195 14
E 71 220 9
E 72 198 14
E 72 224 9
E 73 74 1
E 73 88 7
E 73 183 9
E 74 75 14
E 74 186 9
E 75 76 1
E 75 195 9
E 76 198 9
E 77 78 1
E 77 95 7
E 77 286 2
E 78 289 2
E 78 301 6
E 79 80 1
E 79 307 6
E 79 310 2
E 80 313 2
E 81 82 1
E 81 245 7
E 81 252 2
E 81 286 21
E 82 253 2
E 82 263 6
E 82 289 21
E 83 84 1
E 83 271 6
E 83 280 2
E 83 310 21
E 84 281 2
E 84 294 7
E 84 313 21
E 85 86 1
E 85 115 7
E 85 165 9
E 86 87 14
E 86 168 9
E 87 88 1
E 87 175 9
E 88 178 9
E 89 90 6
E 89 229 11
E 89 240 6
E 89 247 2
E 90 91 2
E 90 246 6
E 90 262 6
E 91 247 6
E 91 264 6
E 91 265 6
E 92 93 1
E 92 222 23
E 93 94 14
E 93 226 23
E 94 95 1
E 94 243 23
E 95 245 23
E 96 97 1
E 96 119 7
E 96 214 6
E 96 222 2
E 97 98 14
E 97 215 6
E 97 226 2
E 98 99 1
E 98 230 6
E 98 243 2
E 99 235 6
E 99 245 2
E 99 252 7
E 100 101 1
E 100 123 7
E 100 180 14
E 100 209 11
E 101 102 14
E 101 184 14
E 101 210 11
E 102 103 1
E 102 192 14
E 102 227 11
E 103 196 14
E 103 217 7
E 103 228 11
E 104 105 1
E 104 127 7
E 104 164 14
E 104 180 9
E 105 106 14
E 105 167 14
E 105 184 9
E 106 107 1
E 106 173 14
E 106 192 9
E 107 177 14
E 107 191 7
E 107 196 9
E 108 109 1
E 108 131 7
E 108 154 14
E 108 164 9
E 109 110 14
E 109 156 14
E 109 167 9
E 110 111 1
E 110 160 14
E 110 173 9
E 111 162 14
E 111 171 7
E 111 177 9
E 112 113 1
E 112 135 7
E 112 154 9
E 113 114 14
E 113 156 9
E 114 115 1
E 114 160 9
E 115 162 9
E 116 117 1
E 116 120 23
E 117 118 14
E 117 121 23
E 118 119 1
E 118 199 12
E 119 200 12
E 120 121 1
E 120 163 14
E 121 122 14
E 121 166 14
E 122 123 1
E 122 172 14
E 122 199 11
E 123 176 14
E 123 200 11
E 124 125 1
E 124 153 14
E 124 158 7
E 124 163 9
E 125 126 14
E 125 155 14
E 125 166 9
E 126 127 1
E 126 159 14
E 126 172 9
E 127 161 14
E 127 176 9
E 128 129 1
E 128 132 23
E 128 148 7
E 128 153 9
E 129 130 14
E 129 146 14
E 129 155 9
E 130 131 1
E 130 151 14
E 130 159 9
E 131 152 14
E 131 161 9
E 132 133 1
E 133 134 14
E 133 146 9
E 134 135 1
E 134 151 9
E 135 152 9
E 136 137 1
E 136 149 9
E 137 138 14
E 137 150 9
E 138 139 1
E 138 157 9
E 139 158 9
E 139 163 7
E 140 141 1
E 140 144 9
E 140 149 14
E 141 142 14
E 141 145 9
E 141 150 14
E 142 143 1
E 142 147 9
E 142 157 14
E 143 148 9
E 143 153 7
E 143 158 14
E 144 145 1
E 145 147 14
E 146 151 14
E 147 148 1
E 149 150 1
E 150 157 14
E 151 152 1
E 152 154 7
E 153 155 1
E 154 156 1
E 155 159 14
E 156 160 14
E 157 158 1
E 159 161 1
E 160 162 1
E 161 164 7
E 162 165 7
E 163 166 1
E 164 167 1
E 165 168 1
E 165 171 14
E 166 172 14
E 167 173 14
E 168 169 6
E 168 174 14
E 169 170 2
E 169 179 14
E 170 175 6
E 170 182 14
E 171 174 1
E 171 181 9
E 172 176 1
E 173 177 1
E 174 179 6
E 174 185 9
E 175 178 1
E 175 187 14
E 176 180 7
E 177 181 7
E 178 183 7
E 178 189 14
E 179 182 2
E 179 188 9
E 180 184 1
E 181 185 1
E 181 191 14
E 182 187 6
E 182 190 9
E 183 186 1
E 184 192 14
E 185 188 6
E 185 193 14
E 186 195 14
E 187 189 1
E 187 194 9
E 188 190 2
E 188 201 14
E 189 197 9
E 190 194 6
E 190 203 14
E 191 193 1
E 191 202 9
E 192 196 1
E 193 201 6
E 193 206 9
E 194 197 1
E 194 211 14
E 195 198 1
E 196 202 7
E 197 204 7
E 197 213 14
E 198 205 7
E 199 200 1
E 200 209 7
E 201 203 2
E 201 212 9
E 202 206 1
E 202 217 14
E 203 211 6
E 203 216 9
E 204 207 1
E 205 208 1
E 206 212 6
E 206 218 14
E 207 220 14
E 208 221 14
E 209 210 1
E 209 214 6
E 210 215 6
E 210 227 14
E 211 213 1
E 211 219 9
E 212 216 2
E 212 229 14
E 213 223 9
E 214 215 1
E 215 230 14
E 216 219 6
E 216 231 14
E 217 218 1
E 217 239 11
E 218 229 6
E 218 240 11
E 219 223 1
E 219 241 14
E 220 224 1
E 221 225 1
E 222 226 1
E 223 232 7
E 223 242 14
E 224 233 7
E 225 234 7
E 226 243 14
E 227 228 1
E 227 230 6
E 228 235 6
E 228 239 7
E 229 231 2
E 230 235 1
E 231 241 6
E 231 247 11
E 232 236 1
E 232 248 12
E 233 237 1
E 233 249 12
E 234 238 1
E 235 244 7
E 236 250 12
E 236 254 14
E 237 251 12
E 237 255 14
E 238 256 14
E 239 240 1
E 239 244 6
E 240 246 6
E 241 242 1
E 241 260 11
E 242 261 11
E 243 245 1
E 244 246 1
E 244 252 6
E 246 253 6
E 247 260 6
E 248 250 1
E 249 251 1
E 250 275 14
E 251 276 14
E 252 253 1
E 253 262 6
E 254 257 1
E 254 275 12
E 255 258 1
E 255 276 12
E 256 259 1
E 257 266 7
E 257 278 12
E 258 267 7
E 258 279 12
E 260 261 1
E 260 265 6
E 261 268 6
E 261 272 7
E 262 263 2
E 262 264 2
E 263 271 2
E 263 300 21
E 264 271 2
E 264 280 6
E 265 268 1
E 265 274 4
E 266 269 1
E 267 270 1
E 268 277 4
E 268 282 7
E 269 291 14
E 270 293 14
E 271 302 21
E 272 273 1
E 272 282 6
E 273 283 6
E 273 298 14
E 274 277 1
E 274 280 2
E 275 278 1
E 276 279 1
E 277 281 2
E 277 284 7
E 280 281 1
E 282 283 1
E 282 284 4
E 283 285 4
E 283 303 14
E 284 285 1
E 285 308 14
E 286 289 1
E 287 290 1
E 288 292 1
E 288 304 9
E 289 300 6
E 290 311 14
E 291 295 1
E 292 306 9
E 292 312 14
E 293 296 1
E 294 297 1
E 294 318 19
E 295 304 7
E 297 316 14
E 297 319 19
E 298 299 1
E 298 303 6
E 299 305 6
E 300 301 2
E 300 302 2
E 301 307 2
E 302 307 2
E 302 310 6
E 303 305 1
E 303 308 4
E 304 306 1
E 305 309 4
E 306 322 14
E 308 309 1
E 310 313 1
E 311 314 1
E 312 315 1
E 312 322 9
E 315 323 9
E 316 317 1
E 316 324 19
E 317 325 19
E 318 319 1
E 319 324 14
E 320 321 1
E 321 326 14
E 322 323 1
E 324 325 1
E 326 327 1
E 1 328 100000
E 2 328 100000
E 3 328 100000
E 4 328 100000
E 5 329 100000
E 6 329 100000
E 7 329 100000
E 8 329 100000
E 9 330 100000
E 10 330 100000
E 11 330 100000
E 12 330 100000
E 13 331 100000
E 14 331 100000
E 15 331 100000
E 16 331 100000
E 17 332 100000
E 18 332 100000
E 19 332 100000
E 20 332 100000
E 21 333 100000
E 22 333 100000
E 23 333 100000
E 24 333 100000
E 25 334 100000
E 26 334 100000
E 27 334 100000
E 28 334 100000
E 29 335 100000
E 30 335 100000
E 31 335 100000
E 32 335 100000
E 33 336 100000
E 34 336 100000
E 35 336 100000
E 36 336 100000
E 37 337 100000
E 38 337 100000
E 39 337 100000
E 40 337 100000
E 41 338 100000
E 42 338 100000
E 43 338 100000
E 44 338 100000
E 45 339 100000
E 46 339 100000
E 47 339 100000
E 48 339 100000
E 49 340 100000
E 50 340 100000
E 51 340 100000
E 52 340 100000
E 53 341 100000
E 54 341 100000
E 55 341 100000
E 56 341 100000
E 57 342 100000
E 58 342 100000
E 59 342 100000
E 60 342 100000
E 61 343 100000
E 62 343 100000
E 63 343 100000
E 64 343 100000
E 65 344 100000
E 66 344 100000
E 67 344 100000
E 68 344 100000
E 69 345 100000
E 70 345 100000
E 71 345 100000
E 72 345 100000
E 73 346 100000
E 74 346 100000
E 75 346 100000
E 76 346 100000
E 77 347 100000
E 78 347 100000
E 79 347 100000
E 80 347 100000
E 81 348 100000
E 82 348 100000
E 83 348 100000
E 84 348 100000
E 85 349 100000
E 86 349 100000
E 87 349 100000
E 88 349 100000
E 89 350 100000
E 90 350 100000
E 91 350 100000
E 92 351 100000
E 93 351 100000
E 94 351 100000
E 95 351 100000
E 96 352 100000
E 97 352 100000
E 98 352 100000
E 99 352 100000
E 100 353 100000
E 101 353 100000
E 102 353 100000
E 103 353 100000
E 104 354 100000
E 105 354 100000
E 106 354 100000
E 107 354 100000
E 108 355 100000
E 109 355 100000
E 110 355 100000
E 111 355 100000
E 112 356 100000
E 113 356 100000
E 114 356 100000
E 115 356 100000
E 116 357 100000
E 117 357 100000
E 118 357 100000
E 119 357 100000
E 120 358 100000
E 121 358 100000
E 122 358 100000
E 123 358 100000
E 124 359 100000
E 125 359 100000
E 126 359 100000
E 127 359 100000
E 128 360 100000
E 129 360 100000
E 130 360 100000
E 131 360 100000
E 132 361 100000
E 133 361 100000
E 134 361 100000
E 135 361 100000
E 136 362 100000
E 137 362 100000
E 138 362 100000
E 139 362 100000
E 140 363 100000
E 141 363 100000
E 142 363 100000
E 143 363 100000
END

SECTION Terminals
Terminals 36
T 328
T 329
T 330
T 331
T 332
T 333
T 334
T 335
T 336
T 337
T 338
T 339
T 340
T 341
T 342
T 343
T 344
T 345
T 346
T 347
T 348
T 349
T 350
T 351
T 352
T 353
T 354
T 355
T 356
T 357
T 358
T 359
T 360
T 361
T 362
T 363
END

SECTION Tree Decomposition
c We do not guarantee that this tree decomposition has minimum width.
s td 296 18 363
b 1 350 90 89 91
b 2 2 3 10 328
b 3 28 27 334 259
b 4 92 93 351 222
b 5 116 117 357 120
b 6 136 362 137 149
b 7 4 3 12 328
b 8 56 55 341 325
b 9 5 6 329 144
b 10 80 347 79 313
b 11 3 10 11 12 328
b 12 1 328 9 32
b 13 169 170 179 168
b 14 199 118 200 122
b 15 214 209 96 215
b 16 248 250 61 232
b 17 249 251 41 233
b 18 274 277 265 280
b 19 286 289 77 81
b 20 296 24 293 20
b 21 299 305 298 64
b 22 301 307 78 300
b 23 314 311 40 36
b 24 315 323 20 312
b 25 317 316 325 60
b 26 318 319 53 294
b 27 327 326 32 36
b 28 337 39 38 37 40
b 29 336 34 35 36 33
b 30 335 31 30 32 29
b 31 31 30 326 32 29
b 32 30 326 321 32 29
b 33 332 19 20 17 18
b 34 331 15 14 16 13
b 35 333 23 22 24 21
b 36 343 63 62 64 61
b 37 344 67 66 68 65
b 38 346 74 75 76 73
b 39 342 59 58 57 60
b 40 354 106 104 105 107
b 41 358 120 121 122 123
b 42 359 124 126 127 125
b 43 362 137 138 149 139
b 44 137 138 149 150 139
b 45 138 149 150 157 139
b 46 93 351 94 226 222
b 47 351 94 226 222 95
b 48 94 226 222 243 95
b 49 117 357 118 120 121
b 50 357 118 119 120 121
b 51 363 141 140 142 143
b 52 6 329 7 145 144
b 53 329 7 145 144 8
b 54 7 145 144 147 8
b 55 360 129 128 130 131
b 56 149 150 157 139 140
b 57 150 157 139 141 140
b 58 145 144 147 141 8
b 59 144 147 141 140 8
b 60 361 133 134 132 135
b 61 352 97 98 99 96
b 62 133 134 132 146 135
b 63 134 132 146 151 135
b 64 353 102 100 101 103
b 65 55 341 54 324 325
b 66 341 54 324 53 325
b 67 54 324 319 53 325
b 68 324 319 53 316 325
b 69 226 222 243 95 97
b 70 222 243 95 97 96
b 71 349 87 86 85 88
b 72 345 70 71 69 72
b 73 87 86 85 88 175
b 74 74 75 76 73 186
b 75 75 76 195 73 186
b 76 86 85 168 88 175
b 77 27 334 26 259 256
b 78 334 26 259 256 25
b 79 26 259 256 238 25
b 80 259 256 238 25 24
b 81 256 238 25 23 24
b 82 356 113 114 112 115
b 83 340 50 51 52 49
b 84 113 114 112 156 115
b 85 114 160 112 156 115
b 86 50 51 208 52 49
b 87 51 221 208 52 49
b 88 339 47 45 46 48
b 89 330 10 11 12 9
b 90 355 109 108 110 111
b 91 338 43 41 44 42
b 92 118 119 200 120 121 122
b 93 307 79 78 302 300
b 94 170 179 168 175 182
b 95 305 303 309 298 64
b 96 347 79 78 77 313
b 97 348 83 81 82 84
b 98 323 322 16 20 312
b 99 319 53 297 316 325 294
b 100 119 200 120 121 122 96
b 101 147 141 140 142 148 8
b 102 157 139 158 141 140 142
b 103 10 11 12 328 9 14
b 104 11 12 328 9 15 14
b 105 12 328 9 15 14 16
b 106 328 9 15 14 16 32
b 107 139 158 141 140 142 163
b 108 53 297 316 325 294 313
b 109 243 95 97 98 245 96
b 110 297 316 325 294 58 313
b 111 95 97 98 245 77 96
b 112 238 25 23 22 24 234
b 113 25 23 22 24 234 52
b 114 90 89 246 262 91
b 115 326 321 35 32 36 29
b 116 19 293 20 17 18 312
b 117 97 98 245 99 77 96 215
b 118 98 245 99 77 96 215 230
b 119 245 99 77 81 96 215 230
b 120 316 325 294 59 58 60 313
b 121 23 22 24 234 21 293 52
b 122 22 24 234 270 21 293 52
b 123 24 234 270 21 293 20 52
b 124 234 270 21 293 20 52 225
b 125 9 15 14 16 13 32 36
b 126 15 14 322 16 13 32 36
b 127 14 322 16 13 306 32 36
b 128 158 141 140 142 143 124 163
b 129 200 120 121 122 209 123 96
b 130 325 294 59 58 29 60 313
b 131 120 121 122 163 209 123 96
b 132 121 122 166 163 209 123 96
b 133 122 166 163 172 209 123 96
b 134 166 125 163 172 209 123 96
b 135 141 140 142 143 148 8 124 163
b 136 143 148 153 8 124 163
b 137 148 153 128 8 124 163
b 138 153 128 8 155 124 163
b 139 224 233 68 72 220
b 140 223 242 219 213 232
b 141 295 304 44 40 291
b 142 264 271 262 91 280
b 143 285 58 284 283 308
b 144 281 57 277 84 280
b 145 218 240 217 206 229
b 146 320 321 33 29 60
b 147 273 62 298 272 283
b 148 231 241 216 229 247
b 149 239 244 240 217 228
b 150 260 241 247 261 265
b 151 212 201 216 206 229
b 152 211 219 203 194 213
b 153 210 101 227 209 215
b 154 154 152 108 112 156
b 155 159 130 155 126 161
b 156 162 160 111 115 165
b 157 164 161 108 167 104
b 158 205 208 45 49 198
b 159 204 197 69 65 207
b 160 237 251 46 255 233
b 161 171 174 181 111 165
b 162 173 177 106 167 110
b 163 176 127 172 123 180
b 164 178 183 189 88 175
b 165 184 101 105 180 192
b 166 185 174 181 188 193
b 167 187 189 175 182 194
b 168 190 203 188 182 194
b 169 191 202 107 181 193
b 170 196 202 103 107 192
b 171 257 266 68 278 254
b 172 236 66 250 254 232
b 173 253 252 246 262 82
b 174 292 288 306 18 312
b 175 235 244 99 228 230
b 176 268 282 277 261 265
b 177 258 267 279 48 255
b 178 269 38 42 291 266
b 179 263 300 271 262 82
b 180 287 37 290 33 64
b 181 310 79 302 83 313
b 182 275 63 278 250 254
b 183 276 43 251 279 255
b 184 85 168 115 165 88 175
b 185 221 208 47 52 225 49
b 186 132 146 151 135 128 8
b 187 146 151 135 129 128 8
b 188 76 195 73 186 49 198
b 189 195 73 186 71 49 198
b 190 303 309 298 64 283 308
b 191 179 168 174 188 175 182
b 192 39 38 37 311 40 291
b 193 79 78 302 300 83 77 313
b 194 78 302 289 300 83 77 313
b 195 302 289 300 83 271 77 313
b 196 289 300 83 271 77 81 82 313
b 197 300 83 271 262 77 81 82 313
b 198 151 135 129 128 8 130 152
b 199 135 129 128 8 130 152 112
b 200 129 128 8 130 131 155 152 112
b 201 67 66 68 254 65 220
b 202 109 108 156 167 110 111
b 203 34 321 35 290 36 33
b 204 102 100 101 227 103 192
b 205 70 186 71 69 72 207
b 206 309 298 33 64 60 283 308
b 207 73 186 71 183 49 198 88
b 208 294 59 58 57 29 60 84 313
b 209 59 58 57 29 60 84 308 313
b 210 321 35 290 32 36 33 29 60
b 211 35 311 290 32 36 33 29 60
b 212 83 271 262 77 81 82 84 280 313
b 213 271 262 77 81 82 91 84 280 313
b 214 160 112 156 110 111 115 165
b 215 282 284 277 261 265 272 283
b 216 288 306 304 17 18 312 44
b 217 322 16 13 306 20 312 32 36
b 218 13 306 304 20 312 40 32 36
b 219 168 174 115 165 188 88 175 182
b 220 270 21 293 267 20 18 52 225
b 221 21 293 267 20 18 48 52 225
b 222 293 267 20 17 18 312 48 52 225
b 223 128 8 130 131 155 124 152 112 163
b 224 58 57 284 29 60 84 283 308 313
b 225 130 131 155 124 126 152 161 112 163
b 226 131 155 124 126 152 161 108 112 163
b 227 155 124 126 152 161 108 112 125 163
b 228 124 126 152 161 108 112 127 125 163
b 229 126 152 161 108 112 127 125 163 172
b 230 152 161 108 112 156 127 125 163 172
b 231 177 106 167 110 107 181 111
b 232 197 69 189 65 207 194 213
b 233 252 246 244 99 262 81 82
b 234 100 101 227 209 123 180 103 192
b 235 208 47 45 46 52 225 49 198
b 236 47 45 46 48 52 225 255 49 198
b 237 66 68 250 254 65 207 220 232
b 238 38 37 311 290 40 42 291 266
b 239 101 227 209 105 123 180 103 192 215
b 240 57 284 277 29 60 84 280 283 308 313
b 241 306 304 20 17 18 312 44 40 32 36
b 242 304 20 17 18 312 44 40 32 36 291
b 243 201 216 203 188 193 206 229
b 244 242 219 241 61 213 232 261
b 245 89 246 240 262 91 229 247
b 246 43 251 41 44 279 255 42 291
b 247 251 41 44 279 46 255 233 42 291
b 248 63 62 298 278 64 250 254 61
b 249 62 298 278 64 250 254 61 272 283
b 250 186 71 183 69 49 72 198 207 88
b 251 71 183 69 49 72 198 207 220 88
b 252 183 69 189 49 72 198 207 220 88 175
b 253 161 108 112 156 127 125 163 172 167 104
b 254 108 112 156 127 125 163 172 167 104 110 111
b 255 106 167 104 110 105 107 192 181 111
b 256 45 46 48 52 225 255 233 49 72 198
b 257 41 44 279 46 255 233 42 291 266 68
b 258 267 20 17 18 312 279 48 52 225 255
b 259 202 103 107 192 181 217 193 206
b 260 227 209 105 123 180 103 192 215 228 230
b 261 112 156 127 125 163 172 167 104 110 111 115 165
b 262 219 241 216 203 61 194 213 232 261
b 263 246 244 240 99 262 81 82 91 229 247
b 264 127 125 163 172 167 104 110 123 180 111 115 165
b 265 125 163 172 167 104 110 209 123 180 111 115 165 96
b 266 174 181 111 115 165 188 193 88 175 182
b 267 37 311 290 40 42 291 266 278 33 64
b 268 298 278 33 64 250 254 60 61 272 283 308
b 269 69 189 49 65 72 198 207 220 88 175 194 213
b 270 189 49 65 72 198 207 220 88 175 182 194 213
b 271 241 216 203 229 247 61 194 213 232 261 265
b 272 284 277 29 60 84 261 265 272 280 283 308 313
b 273 167 104 110 209 105 123 180 107 192 181 111 115 165 96
b 274 244 240 99 262 81 82 91 217 228 230 229 247
b 275 240 99 262 81 82 91 217 228 230 206 229 247
b 276 311 290 40 32 36 42 291 266 278 33 64 29 60
b 277 216 203 188 193 206 229 247 61 194 213 232 261 265
b 278 203 188 193 206 229 247 61 182 194 213 232 261 265
b 279 99 262 77 81 82 91 96 215 217 228 230 206 229 247
b 280 209 105 123 180 103 107 192 181 111 115 165 96 215 228 230
b 281 103 107 192 181 111 115 165 96 215 217 228 230 193 206
b 282 20 17 18 312 44 279 48 52 225 255 40 32 36 291
b 283 44 279 46 48 52 225 255 233 40 32 36 42 291 266 68
b 284 46 48 52 225 255 233 40 32 36 42 291 266 68 49 72 198
b 285 233 40 32 36 42 291 266 68 49 72 198 220
b 286 181 111 115 165 96 215 217 228 230 188 193 206 88 175 182
b 287 262 77 81 82 91 96 215 217 228 230 206 229 247 84 280 313
b 288 91 96 215 217 228 230 206 229 247 84 265 280 313
b 289 96 215 217 228 230 188 193 206 229 247 84 88 175 182 265 280 313
b 290 188 193 206 229 247 61 84 88 175 182 194 213 232 261 265 280 313
b 291 40 32 36 42 291 266 68 278 33 64 49 72 198 220 29 60
b 292 266 68 278 33 64 254 49 72 198 220 29 60
b 293 68 278 33 64 250 254 49 65 72 198 207 220 29 60 232
b 294 278 33 64 250 254 49 65 72 198 207 220 29 60 61 232 272 283 308
b 295 49 65 72 198 207 220 29 60 61 88 175 182 194 213 232 272 283 308
b 296 29 60 61 84 88 175 182 194 213 232 261 265 272 280 283 308 313
1 114
114 245
245 263
263 274
274 275
275 279
279 287
287 288
288 289
289 290
290 278
290 296
278 277
296 295
295 294
294 293
289 286
295 270
293 292
286 281
270 269
292 291
281 280
291 276
291 285
285 284
284 283
280 273
283 282
273 265
265 264
264 261
261 254
296 272
277 271
294 268
282 242
282 258
276 267
254 253
272 240
283 257
284 256
242 241
286 266
269 252
280 260
273 255
271 262
268 249
258 222
240 224
257 247
256 236
253 230
252 251
260 239
230 229
251 250
229 228
228 227
227 226
226 225
287 213
213 212
267 238
241 218
266 219
222 221
224 209
247 246
236 235
239 234
249 248
225 223
212 197
293 237
221 220
209 208
223 200
197 196
281 259
276 211
211 210
265 134
261 214
272 215
268 206
241 216
255 231
262 244
277 243
279 119
250 207
218 217
220 124
208 130
200 199
196 195
134 133
119 118
217 127
124 123
130 120
199 198
195 194
133 132
118 117
127 126
123 122
194 193
132 131
126 125
122 121
131 129
269 232
263 233
254 202
222 116
250 205
238 192
219 184
219 191
235 185
234 204
223 138
237 201
210 115
210 203
206 190
207 189
120 110
198 187
117 111
125 106
121 113
129 100
138 137
189 188
110 108
187 186
111 109
106 105
113 112
100 92
137 136
108 99
105 104
136 135
135 128
104 103
135 101
128 107
107 102
274 175
285 139
274 149
264 163
271 148
271 150
275 145
242 141
258 177
267 180
278 168
253 157
240 144
266 161
266 166
252 164
255 40
262 152
249 147
224 143
247 160
236 88
230 154
239 153
239 165
228 42
225 155
213 142
212 97
238 178
209 39
246 91
246 183
235 158
248 36
248 182
197 179
237 172
200 55
259 169
259 170
210 146
214 85
214 156
85 84
84 82
215 176
216 174
231 162
244 140
243 151
217 98
270 167
292 171
117 61
126 34
193 93
193 96
193 181
131 41
121 35
116 33
232 159
205 72
202 90
192 28
233 173
184 76
76 73
73 71
191 94
185 87
87 86
86 83
204 64
201 37
115 32
32 31
31 30
203 29
190 95
188 75
75 74
74 38
186 63
63 62
62 60
109 70
70 69
69 48
48 47
47 46
112 81
81 80
80 79
79 78
78 77
92 50
50 49
99 68
68 67
67 66
66 65
135 51
103 11
103 89
101 59
59 58
58 54
54 53
53 52
102 57
57 56
56 45
45 44
44 43
94 13
11 7
11 2
95 21
49 5
46 4
77 3
98 24
93 22
52 9
272 18
247 17
294 16
196 19
123 20
120 25
115 27
106 12
92 14
99 26
280 15
65 8
43 6
96 10
276 23
END

EOF
